
 102   30
  10   10   10   10   10   10   10   10   10   10   10   10   10   10   10   10   10   10   10   10   10   10   10   10   10   10   10   10   10   10

   0   0   0   0   0   0   0   0   0   0   0   0   0   0   0   0   0   0   0   0   0   0   0   0   0   0   0   0   0   0   0  29 2 3 4 5 6 7 8 9 10 11 12 13 14 15 16 17 18 19 20 23 26 27 28 29 30 31 33 35 36 
   4   0   0   0   0   0   0   4   0   3   0   0   0   0   0   0   0   0   2   0   0   0   0   0   0   0   0   0   0   0   0  16 101 100 68 61 58 53 52 51 49 48 47 44 39 38 34 24 
   2   0   0   0   0   0   0   2   4   0   1   0   1   0   0   0   0   0   0   0   0   0   3   0   0   0   3   0   0   0   0  14 89 58 51 50 49 48 46 44 42 39 38 37 34 32 
   3   0   1   0   2   0   0   0   0   0   0   0   0   0   0   0   0   0   0   1   1   0   7   0   0   0   0   0   0   0   0  11 89 87 67 61 52 48 47 46 42 25 22 
   9   0   0   3   0   2   0   0   0   0   0   0   0   0   0   0   0   0   0   3   0   0   0   1   0   0   0   0   0   0   0  17 100 91 90 88 87 68 67 58 54 52 51 49 45 44 42 38 34 
  10   0   0   8   0   0   0   0   0   0   0   0   8   0   0   4   0   0   0   0   0   0   0   7   0   0   0   0   0   0   0  14 101 93 91 89 88 87 59 57 53 49 47 44 41 22 
   9   0   0   6   0   0   0   0   0   0   0   0   0   0   0   0   0   0   0   0   0   2   0   0   0   0   0   0   0   0   1  11 101 100 92 66 64 60 54 53 50 47 21 
  10   0   0   0   0   0   0   0   0   0   0   0   0   0   0   0   0   0   0   0   0   5   0   0   0   0   0   0   0   0   8  10 90 87 64 61 58 53 52 38 32 25 
   2   0   0   5   0   0   0   0   0   0   0   0   0   1   0   1   7   0   0   0   0   0   8   0   0   0   0   1   0   0   0  18 101 100 93 92 91 90 88 68 67 66 58 56 55 52 47 44 43 38 
   5   0   0   5   8   0   0   0   0   0   0   0   9   0   0   0   0   0   0   0   0   0   3   0   0   0   0   0   0   0   0  12 100 90 89 85 68 67 66 50 49 48 46 34 
   9   0   0   0   0   0   0   0   0   0   0   0   0   0   0   5   1   0   0   0   0   0   0   0   0   0   0   0   0   2   0  16 95 94 92 90 85 83 66 65 63 60 57 55 53 50 46 43 
   7   0   0   0   0   5   0   4   0   0   0   0   0   0   0   0   0   0   0   0   0   0   0   0   0   0   0   7   0   0   0  15 100 95 92 90 89 88 63 58 56 53 52 47 46 43 42 
   9   2   0   0   0   7   0   0   0   0   0   0   0   0   0   0   0   0   0   0   5   0   0   0   0   0   0   0   4   0   0   9 100 85 68 62 52 50 48 47 34 
   5   0   0   0   0   0   0   6   3   0   7   1   0   0   0   0   0   0   0   0   0   0   0   6   0   0   0   0   0   0   0  10 100 93 89 88 68 67 59 46 44 34 
   6   0   0   0   0   0   0   0   0   0   0   0   0   0   0   0   0   0   0   0   5   0  10   0   0   0   0   0   0   0   7  17 101 99 97 95 93 91 90 89 79 69 67 65 60 59 56 51 46 
   2   0   0   0   0   0   0   0   0   0   0   0   0   0   3   0   0   0   0   7   0   0   0   0   0   0   0   0   0   0   0  12 101 98 96 93 90 89 85 67 66 62 48 34 
   5   0   0   0   7   0   0   0   0   0   0   0   0   0   0   0   0   0   0   0   0   0   0   0   0   1   0   0   4   0   0  22 99 98 95 93 91 89 88 86 85 79 73 68 67 64 63 62 60 59 58 57 56 53 
   8   0   0   0   0   0   0   0   0   0   0   0   0   7   0   3   0   0   0   0   8   0   0   9   0   0   0   6   0   0   0   9 100 98 96 90 88 85 62 40 34 
   4   0   4   0   0   0   0   0   0   0   0   0   0   0   0   0   0   1   0   0   0   8   0   0   3   0   0   0   0   0   0  18 97 96 95 94 93 92 91 90 89 88 82 66 64 63 60 56 51 43 
   2   5   0  10   0   0   0   0   6   0   0   0   0   0   0   0   0   0   0   0   0   0   0   0   0   0   8   0   7   0   0  18 101 100 93 92 91 90 88 84 83 81 79 77 76 66 65 59 46 44 
   1   0   0   7   0   0   0   0   0   0   5   0   6   0   4   0   0   0   0   0   0   7   0   0   0   0   0   5   0   2   0  16 96 95 94 90 89 82 79 74 67 65 63 62 56 51 49 48 
   2   0   0   0   0   0   0   0   0   4   0   0   0   0   4   0   0   0   0   0   0   0   0   0   0   6   0   2   0   4   0  12 100 98 92 90 80 79 68 66 64 58 56 38 
   5   0   0   5   0   0   0   0   0   0   0   0   0   0   0   0   0   0   8   0   0   0   0   0   0   0   0   0   0   6   0  12 98 97 95 94 92 91 90 89 80 79 56 38 
   6   0   0   7   0  10   0   0   0   0   0   0   0   0   0   0   7   0   0   0   0   0   0   0   0   0   0   0   0   8   0  19 99 98 95 92 90 89 86 85 83 81 80 78 74 66 64 63 62 60 50 
   6   0   0   0   0   0   0   0   0   0   0   0   9   7   0   0   0   0   0   0   0   0   0   0   0   0   0   0   4   0   0  20 99 98 97 94 93 92 91 88 86 84 81 80 79 76 66 65 63 62 60 44 
   7   0   0   0   0   0   0   0   0   0   0   0   0   0   0   0   0   0   0   0   0   4  10   0   0   0   0  10   0   0   5  22 99 98 97 96 95 94 93 91 90 88 87 86 82 79 77 75 71 68 67 65 63 56 
   2   0   0  10   0   0   3   0   0   0   0   0   0   0   0  10   0   0   0   0   0   0   0   0   0   0   0   0   0   0   0  16 99 97 96 95 94 93 86 82 79 66 65 64 62 57 56 47 
   2   0   5   0   0   0   0   0   0   8   9   0   8   0   0   2   0   7   0   0   0   0   0   0   0   5   0   4   0   0   0  15 100 99 98 97 89 88 87 83 81 80 76 66 60 46 44 
   7   0   0   0   0   0   0   6   0   6   0   0   0   0   0   0   5   0   0   0   0   0   0   0   0   0   5   0   0   0   0  21 100 98 97 96 95 94 93 92 91 89 85 84 81 80 78 76 71 65 64 63 52 
   4   0   0   0   0   0   0   0   0   0   0   0   7   0   0   0   0   0   0   0   0   0   0   0   0   0   0   0   0   0   0  17 100 99 97 95 93 91 90 85 84 81 79 78 65 64 63 62 47 
   7   0   0   0   0   0   3   0   0   0   0   0   0   0   0   8   0   0   5   0   0   6   0   5   0   0   0   0   0   0   0  20 99 98 97 89 86 85 84 83 81 79 78 77 75 74 73 69 66 63 59 57 
   4   0   0   0   0   0   7   0   0   0   0   0   0   0   0   0   0   7   0   0   6   0   4   8   0   0   0   0   0   0   0  14 101 100 98 97 93 86 82 79 75 73 67 63 56 43 
   5   6   0   0   2   0   0   0   0   0   0   7   0   0   0   6   5   0   0   0   0   0   0   0   0   8   0   0   0   0   0  13 99 98 96 93 86 83 80 79 77 76 64 62 44 
   8   0   0   0   0   0   0  10   0   0   0   0   0   0   0   0   0   0   7   0   0   0   0   0  10   9   0   0   0   0   0  15 99 97 95 94 92 86 82 80 79 78 77 74 63 57 56 
   4   0   9   0   0   0   0   0   0   0   0   0   0   0   7   0   0   0   0   0   0   0   0   0   0   4   6   7   0   0   0  12 93 91 86 82 80 78 77 71 66 63 56 52 
   6   0   0   0   0   0   5   0   0   0   0   0   0   0   0   0   0   0   0   0   0  10   0   0   0   0   0   0   6   0   0  19 100 98 97 96 95 87 85 82 80 79 78 77 76 75 74 72 71 70 65 
   6   0   0   0   0   0   0   0   0   0   0   8   0   0   0   0   0   0   0   0   0   0   0   0   0   0   0   0   0   0   7  18 98 95 92 91 90 87 85 83 82 80 79 78 74 73 71 70 64 63 
   8   0   0   0   0   0   0   0   0   0   0   0   0   0   0   0   5   0   0   0   0   0   4   0   0   0   0   0   0   6   0  15 99 96 86 85 84 82 81 78 77 75 74 65 63 62 60 
   4   0   0   0   0   0   0   0   0   0   0   0   0   0   0   3   0   0   0   0   0   0   0   4   4   0   0   0   0   0   0  14 98 96 94 93 91 90 85 84 76 75 74 73 70 62 
   6   0   0   4  10   7   0   0   0   7   0   0   0   0   0   0   7   0   0  10   0   0   0   0   0   5   3   0   0   0   0  12 94 92 83 82 78 77 76 74 72 71 65 64 
   6   0  10   0   0   0   0   0  10   0  10   0   0   0   0   0   0   0   0   0   6   0   0   0   0   0   0   0   0   0   0  13 100 92 90 86 84 82 81 80 77 75 74 71 70 
   7   0   0   0   0   7   0   0   0   0   0   0   0   0   0   7   7   0   0   0   0   0   0   0   0   0   0   0   0   7   0  11 99 97 93 85 83 82 79 78 75 73 66 
   2   0   0   0   0   0   0   0   0   0   0   0   0   0   0   0   0   0   0   0   6   0   0   0   0   0   0   9   0   0   0  10 99 84 81 78 77 76 74 72 70 62 
   3   0   0   4   0   0   0   0   0   0   0   0   0   0   0   8   6   0   0   0   0   0   0   0   6   4   0   0   0   0   0  10 95 85 82 78 75 74 73 72 71 70 
   8   0  10   0   0   0   0   0   0   0   0   0   0   0   0   0   4   0   0   0   0   0   0   0   0   0   0   0   0   0   0   9 92 84 82 79 78 77 76 71 70 
   6   0   0   0   0   0   5   0   0   0   5   0   0   0   9   0   0   0   0   0   0  10   0   0   0   0   0   0   0   0   0   7 96 86 82 74 70 64 62 
   2   0   7   0   0   0   0   0   0   0   0   0   0   0   0   0   0   0   0   0   0   0   0   8   0   0   0   0   0   6   0   8 98 83 80 77 74 73 71 70 
   8   5   0   0   0   0   0   0   0   0   7   0   0   0   0   0   0   0   0   0   0   0   0   0   0   0   0   0   0   0   0   8 91 86 81 77 76 75 73 70 
   4   0   0   0   0   0   0   0   0   0   0   0   0   0   0   0   0   0   0   0   0   0   7   0   0  10   0   0   9   0   0   8 99 98 97 86 80 78 77 71 
   5   0   0   0   0   4   0   0   0   0   0   6   0   0   6   0   0   0   0   0   0   0   0   0   0   0   0   0   0   4   0   8 96 93 91 88 87 79 76 73 
   8   0   0   0   0   4   0   0   0   3   0   0   0   0   0   0   0   0   0   0   0   0   0   0   0   0   3   9   0   0   3   8 98 85 81 77 76 73 72 70 
   1   0   0   0   7   0   0   0   0   0   0   0   0   0   0   0   5   0   0   7   0   0   0   0   0   0   0   0   0   0   0   6 79 75 74 73 72 70 
  10   0   0   0   0   0   0   0   0   0   0   0   0   0   0   0   7   4   0   0   0   0   0   0   5   0   0   0   0   0   0   6 97 96 77 74 72 70 
   1   0   0   0   7   0   0   0   5   0   0   0   4   0   0   0   0   6   0   6   0   4   0   0   5  10   0   0   0   0   0   6 89 80 79 77 73 70 
   7   7   0   0   0   0   0   0   0   0   4   0   0   0   0   0   0   0   0   5   0   6   0   0   0   0   9   0   0   0   0   5 97 89 80 78 64 
   2   0   0   0   0   0   0   0   6   0   0   0   0   0   0   0   0   0   0   0   7   0   0   0   0   0   0   0   0   0   0   5 84 83 81 76 70 
   6   0   0   0   0   0   9   0   0   0   0   0   0   9   0   3   0   0   4   8   0   0   0   0   0   0   4   0   0   0   0   4 76 72 71 70 
   9   0   0   0   0   0   0   0   0   0   5   0   0   0   0   0   0   0   0   0   0   0   0   0   0   0   0   0   0   0   0   3 94 72 71 
   4   0   0   0   0   0   0   0   0   0   0   0   5   0   0   0   0   0   6   0   0   0   2   0   0   0   0   0   0   0   0   3 94 80 71 
   9   0   0   0   0   7   8   0   0   0   0   6   0   0   0   6   0   0   0   0   0   0   0   0   0   2   0   0   0   0   0   2 71 70 
   5   0   0   0   0   0   0   0   6   0   0   0   0   0   0   0   0   0   8   0   0   5   0   0   0   0   0   0   5  10   0   2 92 74 
   8   0  10   0   0   0   0   0   0   0   0   6   0   0   0   0   0   5   0   0   0   0   5   5   0   0   0   0   0   0   0   1 71 
   9   0   0   0   0   0   0   0  10   0   0   0   0   0   0   6   0   0   0   0   0   0   0   0   8   0   0   0   0   0   0   1 72 
   3   0   0   0   0   0   0   3   0   0   0   0   0   0   7  10   0   0   0   0   0   0   0   0   0   0   0   0   0   0   0   1 75 
   7   0   0   0   0   0   0   0   0   0   0   0   0   0   0   0   8   0   4   0   0   0   0   0   0   0   0   8   0   0   0   1 73 
  10   0   0   0   0   0   0   0   0   0   4   0   0   8   6   0   0   6   0   0   0   0   0   0   0   0   0   0   0   0   0   1 72 
   9   0   0   0   0   0   0   7   0   0   6   0   0   0   0   0   0   0   0   0   0   0   0   0   0   0   0   0   0   0   0   1 70 
   5   0   0   0   0   0   5   0   0   0   0   0   0   0   0   0   0   0   0   0   0   0   0   0   4   0   0   0   0   0   0   1 76 
   5   0   0   0   0   0   0   0   0   0   0   0   0   0   8   0   0   0   0   8   0   0   0   4   0   0   0   0   0   0   0   1 70 
   3   0   0   0   3   0  10   0   6   0   0   0   0   0   0   0   0   0   0   0   0   0   0   0   0   0   0   0   6   7   0   1 102
   5   0   4   0   0   0   0   0   6   0   0   0   0   0   0   0   0   0   0   0   0   0   0   0   0   0   0   0   0   0   0   1 102
   7   0   0   3   0   0   7   5   0   0   0   0   0   0   0   0   0   0   0   0   0   0   0   0   0   0   0   0   0   0   0   1 102
   6   0   0   0   0   0   0   0   8   8   0   0   0   0   0   0   0   0   0   0   0   0   0   0   0   0   0   0   0   0   0   1 102
   9  10   0   0   0   9   0   0   6   0   0   0   0   0   0   0   0   8   0   0   0   0   0   6   0   0   0   0   0   6   0   1 102
   5   0   0   0   0   0   6   0   7   0   8   0   0   0   0   0   0   0   0   4   9   4   0   7  10   0   0   0   0   0   0   1 102
  10   0   0   9   8   0   0   7   0   0   0   0   0   0   0   0   0   0   0   0   0   0   0   0   0   0   0   0   3   0   0   1 102
   6   0   0   0   0   0   0   4   0   0   0   0   0   0   0   0   0   0   0   0   2   0   0   0   0   0  10   0   0   0   0   1 102
   8   0   0   0   0   0   0   0   5   5   0   0   3   0   0   0   0   0   0   0   0   0   0   0   0   0   0   0   0   0   0   1 102
   1   0   0   0   0   0   0   0   0   0   0   0   0   0   0   0   0   0   0   7   0   0   0   0   0   0   0   0   0   0   0   1 102
   8   0   0   0   0   0   0   0   4   0   0   0   0   0   0   0   0   0   0   0   8   0   0   0   0   0   5   0   0   0   0   1 102
  10   5   0   0   0   0   0   0   0   0   7   0   0   0   0   8   0  10   0   0   0   0   0   0   0   0   0   0   0   0   6   1 102
   4   0   0   0   0   8   0   0   0   0   0   8   0   0   0   0   0   0   0   0   6   0   0   7   0   0   6   0   0   0   0   1 102
   7   0   0   0   0   0   0   0   4   0   5   0   0   0   0   0   0   0   0   0   0   0   0   7   0   0   0   7   0   0   0   1 102
   3   0   3   0   0   0   6   0   0   0   0   7   0   0   0   0   0   0   0   0   0   0   0   0   0   0   0   0   0   0   0   1 102
   2   0   0   0   0   0   0   0   0   0   0   0   0   0   0   0   0   0   0   0   0   0   0   5   0   0   0   0   0   0   0   1 102
  10   0   0   4   0   0   0   0   0   0   0   0   0   0   2   0   0   0   0   0   0   0   0   0   0   0   0   0   0   0   0   1 102
   3   0   0   0   4   0   0   0   0   0   0   0   0   0   0   0  10   0   0   0   0   0  10   0   6   0   0   0   8   0   0   1 102
   9   0   0   0  10   0   5   0   0   0   0   0   0   0   0   0   0   0   0   0   0   7   5   7   5   0   0   0   0  10   0   1 102
  10   0   6   0   0   0   0   0   0   0   0   0   0   0  10   0   0   0   6   0   0   0   0   0   0   8   0   0   0   0   6   1 102
   4   0   0   0   0   0   0   0   0   0   0   0   0   0   0   5   0   0   0   0   0   0   0   0   0   0   0   0   0  10   3   1 102
   5   0   6   0   0   0   5   0   0   0   7   0   0   0   0   5   0   5   0   0   0   0   0   0   0   0   0   0   0   0   0   1 102
   6   0   0   0   0   0   0   8   0   2   0   0   0   0   0   0   7   0  10   0   0   0   0   0   0   0   0   0   0   0   0   1 102
   7   0   0   0   0   0   0   0   0  10   0   0   0   0   0   0   0   0   0   0   0   0   0   0   0   0   0   0  10   5  10   1 102
   7   0   0   0   4   0   0   0   0   0   0   0   0   8   0   0   0   0   0   0   7   0   0   0   0   0   0   0   0   0   0   1 102
   5   0   0   0   0   0   0   0   0   0   0   0   0   0   0   0   6   0   0   0   8   0   0   0   0   0   0   0   0   0  10   1 102
   6   0   0   0   0   0   0   8   0   0   0   0   9   0   0   0   0   8   0   0   0   0   0   0   0   0  10   3   0   0   6   1 102
   8   0   0   0   0   0   0   0   0   0   0   5   3   0   0   0   0   5   0   0   0   0   0   0   0   0   6   0   0   0   0   1 102
   8   7   0   0   0   3   0  10   0   0   0   0   0   5   0   0   0   0   0   0   0   0   0   0   0   0   0   0   0   3   0   1 102
  10   0   0   0   0   3   0   0   0   0   0   0   9   0   0   0   0   0   0   0   0   0   0   0   0   0   0   0   0   0   0   1 102
   7   7   0   0   0   8   0   0   0   9   0   0   3   0   0  10   0   0   0   0   0   0   0   0   0   0   0   0   0   0   0   1 102
  10   0   3   0   0   0   0   0   0   7   0   0   0   3   0  10   5   0   0   0   0   0   0   0   0   0   0   0   0   0   0   1 102
   0   0   0   0   0   0   0   0   0   0   0   0   0   0   0   0   0   0   0   0   0   0   0   0   0   0   0   0   0   0   0   0 
